748.46
0 92 56 54 32 7 15 44 24 53 25 96 73 23 37 55 94 19 65 61 18 60 34 87 38 90 80 50 11 26 39 89 84 95 63 41 75 69 4 1 64 3 33 21 83 47 74 35 30 76 5 99 43 17 67 9 10 58 93 14 62 97 71 66 81 31 77 40 22 36 79 78 85 29 12 45 42 48 8 16 28 88 27 68 70 20 13 52 82 72 91 2 57 49 98 46 59 6 51 86
